10
1 0 207
2 0 342
2 1 539
3 0 266
3 1 309
3 2 297
4 0 212
4 1 233
4 2 417
4 3 354
5 0 386
5 1 512
5 2 518
5 3 276
5 4 73
6 0 256
6 1 1
6 2 434
6 3 617
6 4 558
6 5 222
7 0 245
7 1 634
7 2 536
7 3 246
7 4 32
7 5 529
7 6 146
8 0 374
8 1 466
8 2 567
8 3 120
8 4 70
8 5 320
8 6 302
8 7 466
9 0 71
9 1 440
9 2 266
9 3 425
9 4 99
9 5 280
9 6 625
9 7 352
9 8 367
